src/RACER/swarm_exploration/utils/lkh_mtsp_solver/resource/amtsp3_1.atsp
NAME : pairopt
TYPE : ACVRP
DIMENSION : 7
EDGE_WEIGHT_TYPE : EXPLICIT
EDGE_WEIGHT_FORMAT : FULL_MATRIX
CAPACITY : 203
VEHICLES : 2
EDGE_WEIGHT_SECTION
100000 -100000 -100000 100000 100000 100000 100000 
100000 100000 1000000 -414 -311 -289 3676 
100000 1000000 100000 365 288 189 3483 
0 0 0 100000 175 254 3676 
0 0 0 175 100000 125 3427 
0 0 0 254 125 100000 3405 
0 0 0 3676 3427 3405 100000 
DEMAND_SECTION
1 0
2 0
3 0
4 157
5 84
6 14
7 15
DEPOT_SECTION
1
EOF