src/RACER/swarm_exploration/utils/lkh_mtsp_solver/resource/amtsp3_1.tour
NAME : pairopt.-191314.tour
COMMENT : Length = -191314
COMMENT : Found by LKH-3 [Keld Helsgaun] Thu Apr  3 14:47:04 2025
TYPE : TOUR
DIMENSION : 32
TOUR_SECTION
1
3
29
13
10
11
20
14
16
19
28
25
30
32
2
12
24
9
15
23
31
22
26
17
8
27
7
6
21
5
4
18
-1
EOF
